letting n =  10
letting blocks =  [[1, 8], [2, 1], [2, 5], [2, 7], [2, 8], [3, 2], [3, 4], [3, 10], [4, 2], [4, 6], [4, 7], [5, 3], [5, 8], [6, 3], [6, 4], [6, 8], [7, 1], [7, 3], [7, 4], [7, 7], [8, 4], [8, 6], [8, 7], [8, 9], [9, 1], [9, 2], [9, 4], [9, 5], [9, 6], [9, 8], [10, 1], [10, 3], [10, 5], [10, 8]]
